NAME : single
TYPE : ATSP
DIMENSION : 5
EDGE_WEIGHT_TYPE : EXPLICIT
EDGE_WEIGHT_FORMAT : FULL_MATRIX
EDGE_WEIGHT_SECTION
0 400 400 400 300 
0 0 100 0 100 
0 100 0 0 200 
0 0 0 0 200 
0 100 200 200 0 
